823.85
0 5 47 36 69 71 60 70 20 37 15 57 54 13 0 
0 19 14 59 66 65 11 38 0 
0 58 10 31 25 55 18 50 24 49 63 0 
0 1 23 56 41 64 42 43 22 61 21 0 
0 51 16 3 44 32 9 39 72 40 0 
0 4 34 46 8 35 53 7 12 17 0 
0 33 73 62 28 74 48 29 45 27 52 0 
0 26 6 2 30 68 75 67 0 
